(declare-const |a':24| Int)
(declare-const |K:27| Int)
(assert (and (or (not (<= (- |K:27|) 0)) (= (+ |a':24| (- |K:27|)) 0))
               (or (and (= |K:27| 0) (= (- |a':24|) 0))
                     (and (<= (+ (- |K:27|) 1) 0) (<= (+ |a':24| -6) 0)
                            (<= (+ (- |a':24|) 1) 0))) (<= (- |K:27|) 0)
               (<= (- |a':24|) 0) (<= (+ (- |a':24|) 6) 0)
               (= (+ |a':24| -6) 0)))
(check-sat)
